# Objective value = 84
c_n0n2n3 2
c_n0n2n4n6n7 5
c_n0n2n4n6n8 5
c_n0n4n5n6 3
c_n2n4n6n7 3
c_n0n4n6n7 4
c_n0n2n6n7 3
c_n0n2n4n7 3
c_n0n2n4n6 4
c_n2n4n6n8 3
c_n0n4n6n8 3
c_n0n2n6n8 3
c_n0n2n4n8 4
c_n4n5n6 2
c_n0n5n6 1
c_n0n4n6 3
c_n0n4n5 2
c_n4n6n7 3
c_n2n6n7 2
c_n2n4n7 1
c_n2n4n6 2
c_n0n6n7 2
c_n0n4n7 2
c_n0n2n7 2
c_n0n2n6 2
c_n0n2n4 3
c_n4n6n8 2
c_n2n6n8 2
c_n2n4n8 2
c_n0n6n8 1
c_n0n4n8 2
c_n0n2n8 3
y_n0n1 0
y_n1n2 1
y_n0n2 0
y_n1n3 1
y_n0n3 1
y_n1n4 1
y_n0n4 1
y_n1n5 1
y_n0n5 1
y_n1n6 1
y_n0n6 1
y_n1n7 1
y_n0n7 1
y_n1n8 1
y_n0n8 0
y_n2n3 1
y_n2n4 1
y_n2n5 1
y_n2n6 1
y_n2n7 1
y_n2n8 0
y_n3n4 0
y_n3n5 1
y_n3n6 0
y_n3n7 0
y_n3n8 0
y_n4n5 1
y_n4n6 1
y_n4n7 1
y_n4n8 0
y_n5n6 0
y_n5n7 0
y_n5n8 0
y_n6n7 1
y_n6n8 0
y_n7n8 0
pos_n0 3
pos_n1 0
pos_n2 2
pos_n3 7
pos_n4 4
pos_n5 8
pos_n6 5
pos_n7 6
pos_n8 1
z_n4n7 0
z_n2n4 0
z_n4n8 0
z_n4n6 1
z_n4n5 0
z_n3n4 0
z_n2n7 0
z_n7n8 0
z_n6n7 1
z_n5n7 0
z_n3n7 0
z_n2n8 1
z_n2n6 0
z_n2n5 0
z_n2n3 0
z_n6n8 0
z_n5n8 0
z_n3n8 0
z_n5n6 0
z_n3n6 0
z_n3n5 0
z_n0n4 1
z_n1n4 0
z_n0n7 0
z_n0n8 0
z_n0n6 0
z_n0n1 0
z_n0n3 0
z_n1n7 0
z_n1n8 0
z_n1n6 0
z_n1n3 0
z_n0n2 1
z_n0n5 0
